c 
c U(n,d) graph
c graph gen seed     : 26637
c number of vertices : 30
c max number of edges: 500
c Euclidean distance : 0.400000
c data structure     : sparse
c
c           Graph Stats
c number of vertices  : 30
c nonisolated vertices: 30
c number of edges     : 186
c edge density        : 0.427586
c max degree          : 19
c avg degree          : 12.40
c min degree          : 4
p col 30 186
e 1 30
e 1 27
e 1 25
e 1 24
e 1 22
e 1 20
e 1 19
e 1 18
e 1 17
e 1 16
e 1 14
e 1 10
e 1 9
e 1 6
e 1 4
e 2 28
e 2 26
e 2 21
e 2 18
e 2 15
e 2 13
e 2 12
e 2 11
e 2 8
e 2 7
e 2 5
e 3 30
e 3 27
e 3 20
e 3 9
e 4 30
e 4 29
e 4 27
e 4 25
e 4 24
e 4 22
e 4 19
e 4 18
e 4 17
e 4 16
e 4 14
e 4 11
e 4 10
e 4 6
e 4 5
e 5 29
e 5 25
e 5 24
e 5 19
e 5 18
e 5 15
e 5 12
e 5 11
e 5 6
e 6 30
e 6 29
e 6 27
e 6 25
e 6 24
e 6 22
e 6 19
e 6 18
e 6 17
e 6 16
e 6 14
e 6 13
e 6 11
e 6 10
e 7 28
e 7 26
e 7 21
e 7 15
e 7 13
e 7 12
e 7 8
e 8 28
e 8 26
e 8 23
e 8 21
e 8 15
e 8 13
e 8 10
e 8 9
e 9 30
e 9 28
e 9 27
e 9 26
e 9 22
e 9 20
e 9 19
e 9 18
e 9 13
e 9 10
e 10 30
e 10 28
e 10 27
e 10 26
e 10 25
e 10 24
e 10 22
e 10 21
e 10 20
e 10 19
e 10 18
e 10 16
e 10 13
e 11 29
e 11 25
e 11 24
e 11 19
e 11 18
e 11 15
e 11 12
e 12 15
e 13 30
e 13 28
e 13 26
e 13 25
e 13 22
e 13 21
e 13 19
e 13 18
e 13 15
e 14 29
e 14 27
e 14 25
e 14 24
e 14 22
e 14 19
e 14 17
e 14 16
e 15 28
e 15 26
e 15 21
e 16 30
e 16 29
e 16 27
e 16 25
e 16 24
e 16 22
e 16 19
e 16 18
e 16 17
e 17 29
e 17 27
e 17 25
e 17 24
e 17 22
e 18 30
e 18 28
e 18 27
e 18 26
e 18 25
e 18 24
e 18 22
e 18 21
e 18 19
e 19 30
e 19 28
e 19 27
e 19 26
e 19 25
e 19 24
e 19 22
e 19 21
e 20 30
e 20 27
e 20 22
e 21 28
e 21 26
e 21 23
e 22 30
e 22 27
e 22 25
e 22 24
e 23 28
e 23 26
e 24 29
e 24 27
e 24 25
e 25 30
e 25 29
e 25 28
e 25 27
e 26 28
e 27 30
